60 1770
1 2 19
1 3 72
1 4 31
1 5 56
1 6 37
1 7 24
1 8 25
1 9 141
1 10 113
1 11 2
1 12 127
1 13 170
1 14 174
1 15 138
1 16 177
1 17 4
1 18 159
1 19 83
1 20 15
1 21 79
1 22 32
1 23 85
1 24 51
1 25 3
1 26 118
1 27 62
1 28 71
1 29 93
1 30 98
1 31 39
1 32 104
1 33 53
1 34 33
1 35 66
1 36 79
1 37 176
1 38 99
1 39 179
1 40 133
1 41 170
1 42 19
1 43 23
1 44 151
1 45 52
1 46 81
1 47 17
1 48 23
1 49 96
1 50 135
1 51 28
1 52 136
1 53 100
1 54 29
1 55 73
1 56 16
1 57 60
1 58 7
1 59 64
1 60 153
2 3 34
2 4 50
2 5 108
2 6 15
2 7 179
2 8 112
2 9 75
2 10 1
2 11 53
2 12 41
2 13 28
2 14 53
2 15 1
2 16 67
2 17 14
2 18 26
2 19 46
2 20 102
2 21 85
2 22 44
2 23 167
2 24 159
2 25 163
2 26 84
2 27 31
2 28 141
2 29 46
2 30 4
2 31 100
2 32 114
2 33 80
2 34 162
2 35 100
2 36 24
2 37 16
2 38 141
2 39 45
2 40 2
2 41 82
2 42 124
2 43 91
2 44 128
2 45 138
2 46 171
2 47 144
2 48 42
2 49 117
2 50 150
2 51 163
2 52 87
2 53 6
2 54 158
2 55 87
2 56 179
2 57 130
2 58 179
2 59 154
2 60 87
3 4 98
3 5 114
3 6 22
3 7 83
3 8 47
3 9 132
3 10 92
3 11 81
3 12 24
3 13 162
3 14 114
3 15 76
3 16 96
3 17 36
3 18 111
3 19 175
3 20 118
3 21 135
3 22 35
3 23 20
3 24 53
3 25 32
3 26 112
3 27 94
3 28 156
3 29 133
3 30 72
3 31 178
3 32 146
3 33 41
3 34 16
3 35 52
3 36 57
3 37 131
3 38 67
3 39 60
3 40 126
3 41 11
3 42 96
3 43 108
3 44 103
3 45 121
3 46 57
3 47 28
3 48 158
3 49 141
3 50 141
3 51 113
3 52 56
3 53 89
3 54 14
3 55 175
3 56 102
3 57 109
3 58 62
3 59 43
3 60 50
4 5 42
4 6 43
4 7 19
4 8 51
4 9 161
4 10 55
4 11 0
4 12 52
4 13 13
4 14 153
4 15 46
4 16 105
4 17 175
4 18 78
4 19 99
4 20 92
4 21 168
4 22 105
4 23 153
4 24 114
4 25 129
4 26 148
4 27 105
4 28 13
4 29 139
4 30 117
4 31 107
4 32 34
4 33 157
4 34 116
4 35 53
4 36 119
4 37 174
4 38 146
4 39 100
4 40 30
4 41 140
4 42 25
4 43 155
4 44 100
4 45 24
4 46 32
4 47 137
4 48 167
4 49 32
4 50 93
4 51 60
4 52 85
4 53 92
4 54 62
4 55 51
4 56 165
4 57 81
4 58 113
4 59 6
4 60 113
5 6 125
5 7 58
5 8 166
5 9 33
5 10 46
5 11 84
5 12 166
5 13 119
5 14 55
5 15 141
5 16 64
5 17 110
5 18 17
5 19 163
5 20 40
5 21 54
5 22 14
5 23 153
5 24 80
5 25 24
5 26 90
5 27 116
5 28 170
5 29 85
5 30 52
5 31 112
5 32 126
5 33 157
5 34 112
5 35 51
5 36 89
5 37 164
5 38 74
5 39 96
5 40 173
5 41 56
5 42 179
5 43 25
5 44 48
5 45 61
5 46 98
5 47 48
5 48 71
5 49 60
5 50 49
5 51 22
5 52 117
5 53 28
5 54 10
5 55 19
5 56 76
5 57 97
5 58 155
5 59 42
5 60 45
6 7 32
6 8 1
6 9 46
6 10 69
6 11 81
6 12 0
6 13 101
6 14 1
6 15 109
6 16 56
6 17 45
6 18 156
6 19 101
6 20 17
6 21 56
6 22 5
6 23 128
6 24 143
6 25 138
6 26 126
6 27 98
6 28 153
6 29 94
6 30 88
6 31 66
6 32 36
6 33 90
6 34 46
6 35 145
6 36 69
6 37 17
6 38 9
6 39 119
6 40 90
6 41 30
6 42 151
6 43 135
6 44 169
6 45 51
6 46 121
6 47 57
6 48 73
6 49 175
6 50 176
6 51 18
6 52 128
6 53 68
6 54 78
6 55 172
6 56 33
6 57 148
6 58 7
6 59 46
6 60 163
7 8 133
7 9 91
7 10 159
7 11 54
7 12 109
7 13 70
7 14 140
7 15 119
7 16 63
7 17 81
7 18 121
7 19 76
7 20 42
7 21 27
7 22 56
7 23 72
7 24 145
7 25 118
7 26 26
7 27 50
7 28 72
7 29 158
7 30 111
7 31 114
7 32 18
7 33 20
7 34 91
7 35 103
7 36 173
7 37 63
7 38 44
7 39 153
7 40 110
7 41 133
7 42 105
7 43 34
7 44 107
7 45 91
7 46 92
7 47 167
7 48 0
7 49 8
7 50 102
7 51 82
7 52 2
7 53 86
7 54 78
7 55 68
7 56 172
7 57 22
7 58 177
7 59 60
7 60 111
8 9 28
8 10 128
8 11 107
8 12 84
8 13 53
8 14 178
8 15 45
8 16 119
8 17 79
8 18 46
8 19 159
8 20 122
8 21 91
8 22 60
8 23 85
8 24 1
8 25 54
8 26 152
8 27 55
8 28 141
8 29 9
8 30 159
8 31 173
8 32 111
8 33 22
8 34 41
8 35 144
8 36 57
8 37 43
8 38 34
8 39 147
8 40 125
8 41 11
8 42 19
8 43 36
8 44 162
8 45 64
8 46 159
8 47 112
8 48 133
8 49 167
8 50 60
8 51 36
8 52 170
8 53 76
8 54 47
8 55 85
8 56 35
8 57 62
8 58 134
8 59 102
8 60 175
9 10 42
9 11 126
9 12 136
9 13 42
9 14 142
9 15 55
9 16 168
9 17 142
9 18 5
9 19 38
9 20 16
9 21 26
9 22 123
9 23 53
9 24 69
9 25 173
9 26 61
9 27 148
9 28 145
9 29 110
9 30 34
9 31 58
9 32 78
9 33 138
9 34 112
9 35 152
9 36 112
9 37 109
9 38 144
9 39 97
9 40 109
9 41 2
9 42 28
9 43 170
9 44 160
9 45 161
9 46 11
9 47 165
9 48 171
9 49 43
9 50 106
9 51 3
9 52 142
9 53 140
9 54 173
9 55 116
9 56 38
9 57 25
9 58 138
9 59 63
9 60 141
10 11 69
10 12 94
10 13 30
10 14 150
10 15 110
10 16 146
10 17 123
10 18 155
10 19 5
10 20 30
10 21 61
10 22 160
10 23 170
10 24 88
10 25 112
10 26 100
10 27 87
10 28 27
10 29 84
10 30 74
10 31 119
10 32 85
10 33 121
10 34 17
10 35 115
10 36 22
10 37 79
10 38 55
10 39 137
10 40 111
10 41 66
10 42 6
10 43 34
10 44 29
10 45 134
10 46 9
10 47 169
10 48 11
10 49 131
10 50 116
10 51 154
10 52 83
10 53 99
10 54 63
10 55 22
10 56 144
10 57 130
10 58 33
10 59 173
10 60 161
11 12 45
11 13 173
11 14 162
11 15 78
11 16 21
11 17 62
11 18 142
11 19 152
11 20 44
11 21 98
11 22 12
11 23 159
11 24 70
11 25 34
11 26 63
11 27 162
11 28 64
11 29 8
11 30 131
11 31 110
11 32 156
11 33 27
11 34 80
11 35 14
11 36 18
11 37 29
11 38 84
11 39 124
11 40 118
11 41 91
11 42 91
11 43 3
11 44 138
11 45 122
11 46 29
11 47 27
11 48 8
11 49 51
11 50 19
11 51 167
11 52 154
11 53 132
11 54 15
11 55 8
11 56 152
11 57 22
11 58 52
11 59 130
11 60 23
12 13 160
12 14 11
12 15 5
12 16 38
12 17 123
12 18 170
12 19 109
12 20 100
12 21 138
12 22 106
12 23 149
12 24 62
12 25 118
12 26 37
12 27 43
12 28 81
12 29 150
12 30 137
12 31 116
12 32 151
12 33 92
12 34 9
12 35 26
12 36 38
12 37 61
12 38 155
12 39 11
12 40 76
12 41 48
12 42 16
12 43 94
12 44 154
12 45 158
12 46 9
12 47 92
12 48 2
12 49 20
12 50 26
12 51 90
12 52 139
12 53 161
12 54 44
12 55 35
12 56 12
12 57 79
12 58 170
12 59 133
12 60 32
13 14 134
13 15 123
13 16 126
13 17 111
13 18 153
13 19 1
13 20 19
13 21 88
13 22 14
13 23 13
13 24 35
13 25 155
13 26 144
13 27 131
13 28 136
13 29 4
13 30 5
13 31 17
13 32 158
13 33 68
13 34 96
13 35 135
13 36 7
13 37 16
13 38 43
13 39 144
13 40 123
13 41 52
13 42 64
13 43 158
13 44 139
13 45 94
13 46 121
13 47 6
13 48 178
13 49 19
13 50 150
13 51 92
13 52 160
13 53 78
13 54 118
13 55 163
13 56 120
13 57 136
13 58 161
13 59 130
13 60 99
14 15 66
14 16 143
14 17 4
14 18 23
14 19 53
14 20 178
14 21 160
14 22 50
14 23 22
14 24 82
14 25 14
14 26 114
14 27 75
14 28 40
14 29 39
14 30 130
14 31 176
14 32 160
14 33 72
14 34 119
14 35 40
14 36 26
14 37 4
14 38 141
14 39 106
14 40 12
14 41 15
14 42 122
14 43 7
14 44 59
14 45 74
14 46 124
14 47 148
14 48 35
14 49 129
14 50 68
14 51 118
14 52 51
14 53 139
14 54 122
14 55 176
14 56 11
14 57 170
14 58 43
14 59 73
14 60 129
15 16 85
15 17 49
15 18 100
15 19 6
15 20 18
15 21 161
15 22 125
15 23 116
15 24 93
15 25 158
15 26 101
15 27 74
15 28 122
15 29 103
15 30 162
15 31 26
15 32 151
15 33 125
15 34 114
15 35 75
15 36 107
15 37 29
15 38 36
15 39 111
15 40 156
15 41 96
15 42 118
15 43 96
15 44 91
15 45 48
15 46 110
15 47 2
15 48 131
15 49 126
15 50 93
15 51 57
15 52 6
15 53 5
15 54 69
15 55 2
15 56 154
15 57 157
15 58 13
15 59 133
15 60 157
16 17 157
16 18 89
16 19 87
16 20 141
16 21 133
16 22 64
16 23 124
16 24 171
16 25 116
16 26 119
16 27 12
16 28 140
16 29 44
16 30 172
16 31 111
16 32 44
16 33 57
16 34 24
16 35 141
16 36 5
16 37 78
16 38 102
16 39 111
16 40 167
16 41 144
16 42 93
16 43 179
16 44 66
16 45 147
16 46 85
16 47 80
16 48 76
16 49 64
16 50 130
16 51 72
16 52 45
16 53 165
16 54 123
16 55 151
16 56 16
16 57 100
16 58 111
16 59 103
16 60 172
17 18 111
17 19 98
17 20 135
17 21 41
17 22 28
17 23 158
17 24 135
17 25 20
17 26 120
17 27 57
17 28 61
17 29 150
17 30 118
17 31 3
17 32 44
17 33 11
17 34 135
17 35 151
17 36 33
17 37 117
17 38 63
17 39 51
17 40 56
17 41 99
17 42 58
17 43 29
17 44 106
17 45 132
17 46 88
17 47 66
17 48 3
17 49 69
17 50 170
17 51 37
17 52 24
17 53 159
17 54 72
17 55 126
17 56 31
17 57 147
17 58 20
17 59 89
17 60 82
18 19 80
18 20 81
18 21 141
18 22 91
18 23 114
18 24 4
18 25 122
18 26 141
18 27 22
18 28 32
18 29 12
18 30 15
18 31 89
18 32 173
18 33 129
18 34 92
18 35 140
18 36 112
18 37 142
18 38 100
18 39 41
18 40 118
18 41 42
18 42 101
18 43 162
18 44 79
18 45 94
18 46 36
18 47 111
18 48 11
18 49 72
18 50 55
18 51 80
18 52 64
18 53 86
18 54 41
18 55 0
18 56 59
18 57 136
18 58 3
18 59 118
18 60 94
19 20 19
19 21 71
19 22 60
19 23 81
19 24 3
19 25 136
19 26 117
19 27 34
19 28 117
19 29 70
19 30 56
19 31 91
19 32 128
19 33 95
19 34 27
19 35 38
19 36 30
19 37 142
19 38 7
19 39 1
19 40 124
19 41 141
19 42 127
19 43 54
19 44 94
19 45 161
19 46 99
19 47 69
19 48 14
19 49 145
19 50 130
19 51 125
19 52 61
19 53 140
19 54 24
19 55 135
19 56 117
19 57 82
19 58 137
19 59 171
19 60 115
20 21 177
20 22 67
20 23 53
20 24 86
20 25 31
20 26 32
20 27 0
20 28 114
20 29 112
20 30 5
20 31 51
20 32 123
20 33 16
20 34 142
20 35 103
20 36 35
20 37 174
20 38 57
20 39 51
20 40 5
20 41 15
20 42 61
20 43 160
20 44 140
20 45 24
20 46 9
20 47 120
20 48 88
20 49 69
20 50 64
20 51 71
20 52 138
20 53 40
20 54 26
20 55 107
20 56 147
20 57 144
20 58 23
20 59 22
20 60 137
21 22 28
21 23 27
21 24 173
21 25 23
21 26 23
21 27 130
21 28 112
21 29 139
21 30 101
21 31 38
21 32 101
21 33 10
21 34 23
21 35 19
21 36 122
21 37 93
21 38 141
21 39 39
21 40 64
21 41 148
21 42 30
21 43 120
21 44 71
21 45 163
21 46 147
21 47 76
21 48 88
21 49 167
21 50 118
21 51 37
21 52 133
21 53 59
21 54 99
21 55 19
21 56 53
21 57 15
21 58 157
21 59 35
21 60 25
22 23 33
22 24 78
22 25 27
22 26 173
22 27 145
22 28 97
22 29 10
22 30 119
22 31 81
22 32 15
22 33 107
22 34 41
22 35 120
22 36 75
22 37 6
22 38 48
22 39 128
22 40 63
22 41 69
22 42 55
22 43 26
22 44 68
22 45 0
22 46 115
22 47 74
22 48 148
22 49 103
22 50 107
22 51 72
22 52 118
22 53 160
22 54 84
22 55 148
22 56 95
22 57 65
22 58 46
22 59 155
22 60 164
23 24 97
23 25 109
23 26 161
23 27 168
23 28 40
23 29 116
23 30 82
23 31 45
23 32 59
23 33 35
23 34 78
23 35 112
23 36 102
23 37 56
23 38 159
23 39 82
23 40 43
23 41 7
23 42 169
23 43 126
23 44 133
23 45 158
23 46 163
23 47 40
23 48 16
23 49 24
23 50 43
23 51 125
23 52 151
23 53 115
23 54 62
23 55 144
23 56 150
23 57 175
23 58 41
23 59 150
23 60 12
24 25 88
24 26 136
24 27 124
24 28 95
24 29 13
24 30 175
24 31 73
24 32 105
24 33 80
24 34 132
24 35 61
24 36 66
24 37 107
24 38 10
24 39 76
24 40 121
24 41 98
24 42 3
24 43 116
24 44 12
24 45 65
24 46 7
24 47 53
24 48 136
24 49 101
24 50 9
24 51 178
24 52 58
24 53 94
24 54 128
24 55 169
24 56 126
24 57 17
24 58 136
24 59 102
24 60 109
25 26 144
25 27 5
25 28 101
25 29 75
25 30 20
25 31 39
25 32 136
25 33 139
25 34 47
25 35 147
25 36 91
25 37 53
25 38 34
25 39 68
25 40 28
25 41 166
25 42 123
25 43 40
25 44 62
25 45 130
25 46 45
25 47 167
25 48 116
25 49 87
25 50 143
25 51 162
25 52 147
25 53 84
25 54 45
25 55 100
25 56 12
25 57 161
25 58 35
25 59 94
25 60 86
26 27 91
26 28 88
26 29 46
26 30 58
26 31 158
26 32 129
26 33 15
26 34 62
26 35 166
26 36 39
26 37 51
26 38 33
26 39 53
26 40 177
26 41 20
26 42 5
26 43 3
26 44 84
26 45 97
26 46 158
26 47 21
26 48 87
26 49 54
26 50 127
26 51 177
26 52 83
26 53 166
26 54 128
26 55 158
26 56 146
26 57 122
26 58 177
26 59 21
26 60 133
27 28 130
27 29 24
27 30 168
27 31 8
27 32 25
27 33 60
27 34 86
27 35 159
27 36 66
27 37 81
27 38 79
27 39 114
27 40 38
27 41 134
27 42 131
27 43 73
27 44 97
27 45 126
27 46 167
27 47 37
27 48 55
27 49 18
27 50 29
27 51 90
27 52 165
27 53 113
27 54 0
27 55 130
27 56 79
27 57 76
27 58 82
27 59 160
27 60 21
28 29 89
28 30 20
28 31 146
28 32 48
28 33 135
28 34 62
28 35 156
28 36 13
28 37 101
28 38 101
28 39 21
28 40 49
28 41 35
28 42 171
28 43 161
28 44 92
28 45 59
28 46 169
28 47 24
28 48 73
28 49 130
28 50 171
28 51 56
28 52 8
28 53 153
28 54 46
28 55 144
28 56 83
28 57 48
28 58 85
28 59 127
28 60 80
29 30 24
29 31 106
29 32 22
29 33 96
29 34 49
29 35 148
29 36 146
29 37 137
29 38 29
29 39 26
29 40 49
29 41 150
29 42 75
29 43 27
29 44 104
29 45 23
29 46 14
29 47 122
29 48 108
29 49 155
29 50 161
29 51 3
29 52 32
29 53 178
29 54 85
29 55 151
29 56 172
29 57 72
29 58 60
29 59 116
29 60 63
30 31 16
30 32 39
30 33 22
30 34 57
30 35 82
30 36 150
30 37 28
30 38 167
30 39 106
30 40 69
30 41 63
30 42 12
30 43 92
30 44 90
30 45 14
30 46 152
30 47 150
30 48 112
30 49 107
30 50 173
30 51 146
30 52 34
30 53 176
30 54 113
30 55 172
30 56 142
30 57 161
30 58 75
30 59 92
30 60 11
31 32 77
31 33 128
31 34 29
31 35 46
31 36 24
31 37 170
31 38 126
31 39 1
31 40 50
31 41 79
31 42 108
31 43 136
31 44 160
31 45 87
31 46 123
31 47 6
31 48 81
31 49 23
31 50 63
31 51 15
31 52 74
31 53 65
31 54 124
31 55 126
31 56 157
31 57 80
31 58 79
31 59 177
31 60 103
32 33 153
32 34 171
32 35 69
32 36 84
32 37 47
32 38 116
32 39 178
32 40 26
32 41 68
32 42 49
32 43 80
32 44 9
32 45 100
32 46 150
32 47 96
32 48 126
32 49 179
32 50 56
32 51 49
32 52 99
32 53 73
32 54 41
32 55 177
32 56 101
32 57 44
32 58 69
32 59 31
32 60 29
33 34 159
33 35 74
33 36 140
33 37 177
33 38 144
33 39 88
33 40 179
33 41 30
33 42 162
33 43 55
33 44 172
33 45 49
33 46 69
33 47 132
33 48 178
33 49 127
33 50 177
33 51 54
33 52 135
33 53 64
33 54 136
33 55 156
33 56 106
33 57 137
33 58 140
33 59 23
33 60 179
34 35 75
34 36 164
34 37 158
34 38 147
34 39 138
34 40 133
34 41 93
34 42 12
34 43 52
34 44 94
34 45 63
34 46 39
34 47 27
34 48 149
34 49 18
34 50 43
34 51 96
34 52 24
34 53 16
34 54 113
34 55 29
34 56 161
34 57 173
34 58 163
34 59 133
34 60 137
35 36 76
35 37 98
35 38 17
35 39 156
35 40 56
35 41 43
35 42 152
35 43 68
35 44 151
35 45 37
35 46 163
35 47 29
35 48 80
35 49 121
35 50 74
35 51 7
35 52 1
35 53 151
35 54 86
35 55 94
35 56 58
35 57 122
35 58 10
35 59 46
35 60 22
36 37 54
36 38 81
36 39 45
36 40 8
36 41 170
36 42 173
36 43 1
36 44 83
36 45 50
36 46 133
36 47 99
36 48 116
36 49 152
36 50 10
36 51 26
36 52 112
36 53 26
36 54 62
36 55 97
36 56 131
36 57 122
36 58 77
36 59 24
36 60 153
37 38 25
37 39 92
37 40 96
37 41 151
37 42 62
37 43 124
37 44 111
37 45 147
37 46 125
37 47 116
37 48 127
37 49 17
37 50 126
37 51 59
37 52 100
37 53 48
37 54 46
37 55 151
37 56 7
37 57 8
37 58 164
37 59 14
37 60 142
38 39 61
38 40 141
38 41 151
38 42 48
38 43 154
38 44 62
38 45 94
38 46 112
38 47 11
38 48 125
38 49 3
38 50 140
38 51 63
38 52 60
38 53 129
38 54 11
38 55 123
38 56 62
38 57 91
38 58 87
38 59 85
38 60 136
39 40 11
39 41 51
39 42 153
39 43 6
39 44 41
39 45 40
39 46 148
39 47 65
39 48 61
39 49 100
39 50 176
39 51 119
39 52 26
39 53 89
39 54 29
39 55 93
39 56 170
39 57 134
39 58 122
39 59 95
39 60 46
40 41 7
40 42 126
40 43 84
40 44 40
40 45 178
40 46 13
40 47 68
40 48 39
40 49 152
40 50 38
40 51 89
40 52 75
40 53 174
40 54 24
40 55 115
40 56 78
40 57 63
40 58 105
40 59 161
40 60 49
41 42 104
41 43 53
41 44 101
41 45 162
41 46 157
41 47 137
41 48 147
41 49 27
41 50 107
41 51 82
41 52 146
41 53 104
41 54 7
41 55 140
41 56 130
41 57 169
41 58 18
41 59 41
41 60 120
42 43 15
42 44 42
42 45 30
42 46 30
42 47 168
42 48 172
42 49 168
42 50 53
42 51 15
42 52 171
42 53 64
42 54 60
42 55 119
42 56 3
42 57 146
42 58 52
42 59 11
42 60 127
43 44 55
43 45 69
43 46 168
43 47 21
43 48 142
43 49 14
43 50 105
43 51 35
43 52 29
43 53 157
43 54 68
43 55 45
43 56 122
43 57 76
43 58 5
43 59 40
43 60 107
44 45 125
44 46 51
44 47 116
44 48 28
44 49 26
44 50 155
44 51 100
44 52 30
44 53 149
44 54 175
44 55 90
44 56 46
44 57 1
44 58 8
44 59 24
44 60 82
45 46 82
45 47 42
45 48 138
45 49 122
45 50 139
45 51 65
45 52 44
45 53 178
45 54 147
45 55 20
45 56 51
45 57 52
45 58 133
45 59 53
45 60 14
46 47 0
46 48 79
46 49 176
46 50 23
46 51 55
46 52 160
46 53 14
46 54 50
46 55 128
46 56 118
46 57 53
46 58 175
46 59 26
46 60 0
47 48 15
47 49 23
47 50 156
47 51 82
47 52 52
47 53 18
47 54 129
47 55 24
47 56 97
47 57 29
47 58 125
47 59 93
47 60 119
48 49 25
48 50 111
48 51 52
48 52 118
48 53 124
48 54 127
48 55 36
48 56 154
48 57 94
48 58 154
48 59 62
48 60 147
49 50 5
49 51 72
49 52 141
49 53 160
49 54 163
49 55 3
49 56 51
49 57 15
49 58 32
49 59 129
49 60 102
50 51 1
50 52 158
50 53 156
50 54 21
50 55 81
50 56 112
50 57 133
50 58 43
50 59 15
50 60 48
51 52 16
51 53 19
51 54 75
51 55 105
51 56 177
51 57 165
51 58 4
51 59 37
51 60 35
52 53 164
52 54 114
52 55 67
52 56 1
52 57 145
52 58 12
52 59 19
52 60 109
53 54 155
53 55 2
53 56 31
53 57 25
53 58 154
53 59 159
53 60 136
54 55 138
54 56 146
54 57 6
54 58 23
54 59 57
54 60 115
55 56 141
55 57 0
55 58 82
55 59 101
55 60 47
56 57 5
56 58 53
56 59 27
56 60 85
57 58 127
57 59 60
57 60 113
58 59 89
58 60 21
59 60 173
